(set-logic QF_LRA)
(declare-fun X0 () Real )
(declare-fun Y0 () Real )
(declare-fun X1 () Real )
(declare-fun Y1 () Real )
(declare-fun X2 () Real )
(declare-fun Y2 () Real )
(declare-fun X3 () Real )
(declare-fun Y3 () Real )
(declare-fun X4 () Real )
(declare-fun Y4 () Real )
(declare-fun X5 () Real )
(declare-fun Y5 () Real )
(declare-fun Z () Real )
(assert ( and  
( or ( <= ( + X0 3 ) X1 )  ( <= ( + X1 39 ) X0 )  ( <= ( + Y0 32 ) Y1 )  ( <= ( + Y1 94 ) Y0 )  )
( or ( <= ( + X0 3 ) X2 )  ( <= ( + X2 92 ) X0 )  ( <= ( + Y0 32 ) Y2 )  ( <= ( + Y2 17 ) Y0 )  )
( or ( <= ( + X0 3 ) X3 )  ( <= ( + X3 44 ) X0 )  ( <= ( + Y0 32 ) Y3 )  ( <= ( + Y3 27 ) Y0 )  )
( or ( <= ( + X0 3 ) X4 )  ( <= ( + X4 60 ) X0 )  ( <= ( + Y0 32 ) Y4 )  ( <= ( + Y4 58 ) Y0 )  )
( or ( <= ( + X0 3 ) X5 )  ( <= ( + X5 90 ) X0 )  ( <= ( + Y0 32 ) Y5 )  ( <= ( + Y5 71 ) Y0 )  )
( or ( <= ( + X1 39 ) X2 )  ( <= ( + X2 92 ) X1 )  ( <= ( + Y1 94 ) Y2 )  ( <= ( + Y2 17 ) Y1 )  )
( or ( <= ( + X1 39 ) X3 )  ( <= ( + X3 44 ) X1 )  ( <= ( + Y1 94 ) Y3 )  ( <= ( + Y3 27 ) Y1 )  )
( or ( <= ( + X1 39 ) X4 )  ( <= ( + X4 60 ) X1 )  ( <= ( + Y1 94 ) Y4 )  ( <= ( + Y4 58 ) Y1 )  )
( or ( <= ( + X1 39 ) X5 )  ( <= ( + X5 90 ) X1 )  ( <= ( + Y1 94 ) Y5 )  ( <= ( + Y5 71 ) Y1 )  )
( or ( <= ( + X2 92 ) X3 )  ( <= ( + X3 44 ) X2 )  ( <= ( + Y2 17 ) Y3 )  ( <= ( + Y3 27 ) Y2 )  )
( or ( <= ( + X2 92 ) X4 )  ( <= ( + X4 60 ) X2 )  ( <= ( + Y2 17 ) Y4 )  ( <= ( + Y4 58 ) Y2 )  )
( or ( <= ( + X2 92 ) X5 )  ( <= ( + X5 90 ) X2 )  ( <= ( + Y2 17 ) Y5 )  ( <= ( + Y5 71 ) Y2 )  )
( or ( <= ( + X3 44 ) X4 )  ( <= ( + X4 60 ) X3 )  ( <= ( + Y3 27 ) Y4 )  ( <= ( + Y4 58 ) Y3 )  )
( or ( <= ( + X3 44 ) X5 )  ( <= ( + X5 90 ) X3 )  ( <= ( + Y3 27 ) Y5 )  ( <= ( + Y5 71 ) Y3 )  )
( or ( <= ( + X4 60 ) X5 )  ( <= ( + X5 90 ) X4 )  ( <= ( + Y4 58 ) Y5 )  ( <= ( + Y5 71 ) Y4 )  )
( >= X0 0)
( <= ( + X0 3) Z)
( >= Y0 0)
( <= ( + Y0 32 ) 100)
( >= X1 0)
( <= ( + X1 39) Z)
( >= Y1 0)
( <= ( + Y1 94 ) 100)
( >= X2 0)
( <= ( + X2 92) Z)
( >= Y2 0)
( <= ( + Y2 17 ) 100)
( >= X3 0)
( <= ( + X3 44) Z)
( >= Y3 0)
( <= ( + Y3 27 ) 100)
( >= X4 0)
( <= ( + X4 60) Z)
( >= Y4 0)
( <= ( + Y4 58 ) 100)
( >= X5 0)
( <= ( + X5 90) Z)
( >= Y5 0)
( <= ( + Y5 71 ) 100)
) )
(minimize Z)
(check-sat)
